1000 1000
572 482 264 349 276 745 434 446 668 405 486 554 392 459 426 728 644 382 268 324 277 254 483 678 546 716 542 634 497 417 290 321 543 599 467 583 729 465 614 446 734 479 656 537 604 746 439 339 273 625
665 640 594 566 660 422 622 433 506 635 320 549 491 528 579 359 465 323 352 512 426 685 532 414 590 640 400 596 696 300 605 520 290 269 679 421 723 590 585 327 616 606 278 355 519 596 281 405 526 568
380380 308480 156816 197534 182160 314390 269948 193118 338008 257175 155520 304146 192472 242352 246654 261352 299460 123386 94336 165888 118002 173990 256956 280692 322140 458240 216800 377864 345912 125100 175450 166920 157470 161131 317093 245443 527067 274350 359190 145842 452144 290274 182368 190635 313476 444616 123359 137295 143598 355000